100
1 2
1 5
1 8
1 12
1 13
1 14
1 17
1 18
1 20
1 23
1 24
1 26
1 27
1 30
1 32
1 33
1 34
1 38
1 42
1 43
1 45
1 46
1 47
1 52
1 54
1 55
1 56
1 58
1 59
1 62
1 67
1 68
1 69
1 72
1 73
1 74
1 75
1 76
1 77
1 81
1 83
1 84
1 85
1 86
1 88
1 92
1 93
1 96
1 98
2 3
2 4
2 7
2 9
2 10
2 13
2 22
2 26
2 27
2 28
2 29
2 32
2 33
2 34
2 35
2 41
2 42
2 43
2 44
2 46
2 48
2 49
2 55
2 56
2 57
2 60
2 62
2 63
2 65
2 68
2 69
2 72
2 76
2 77
2 78
2 79
2 81
2 83
2 84
2 88
2 90
2 92
2 94
2 95
2 96
2 97
2 99
2 100
3 4
3 5
3 6
3 7
3 8
3 9
3 11
3 15
3 19
3 22
3 23
3 29
3 30
3 36
3 40
3 41
3 45
3 47
3 48
3 54
3 57
3 58
3 59
3 61
3 63
3 64
3 66
3 67
3 68
3 69
3 70
3 71
3 75
3 77
3 78
3 83
3 84
3 85
3 86
3 87
3 89
3 91
3 94
3 96
3 100
4 5
4 6
4 9
4 10
4 12
4 19
4 22
4 29
4 31
4 34
4 35
4 40
4 45
4 47
4 51
4 52
4 55
4 60
4 62
4 63
4 65
4 68
4 69
4 72
4 73
4 74
4 75
4 76
4 80
4 81
4 82
4 84
4 85
4 87
4 92
4 95
4 96
4 97
4 98
4 99
5 6
5 7
5 8
5 10
5 14
5 15
5 16
5 17
5 18
5 21
5 22
5 23
5 24
5 26
5 30
5 31
5 32
5 33
5 34
5 36
5 43
5 44
5 45
5 46
5 48
5 49
5 50
5 51
5 52
5 56
5 57
5 58
5 61
5 65
5 66
5 67
5 68
5 70
5 75
5 78
5 79
5 80
5 81
5 82
5 83
5 85
5 92
5 93
5 96
6 7
6 8
6 10
6 12
6 13
6 14
6 16
6 17
6 18
6 20
6 21
6 26
6 27
6 29
6 32
6 33
6 34
6 35
6 38
6 41
6 43
6 45
6 49
6 53
6 55
6 58
6 59
6 60
6 61
6 62
6 63
6 65
6 68
6 69
6 77
6 78
6 80
6 81
6 85
6 86
6 87
6 88
6 89
6 91
6 92
6 94
6 95
7 8
7 10
7 11
7 15
7 18
7 23
7 24
7 27
7 28
7 29
7 33
7 34
7 35
7 37
7 38
7 39
7 40
7 41
7 44
7 45
7 46
7 47
7 48
7 50
7 51
7 52
7 54
7 58
7 59
7 61
7 65
7 66
7 70
7 71
7 76
7 78
7 81
7 82
7 83
7 84
7 87
7 88
7 89
7 91
7 92
7 93
7 95
7 96
7 98
7 99
8 9
8 10
8 16
8 17
8 23
8 24
8 25
8 28
8 29
8 30
8 33
8 34
8 37
8 38
8 39
8 40
8 42
8 43
8 44
8 46
8 48
8 50
8 55
8 57
8 58
8 60
8 61
8 62
8 63
8 65
8 66
8 71
8 74
8 75
8 79
8 81
8 82
8 84
8 85
8 87
8 92
8 93
8 99
9 10
9 13
9 15
9 16
9 18
9 22
9 23
9 25
9 28
9 30
9 31
9 32
9 34
9 35
9 36
9 39
9 43
9 44
9 45
9 47
9 48
9 51
9 52
9 53
9 56
9 57
9 58
9 60
9 62
9 63
9 64
9 65
9 67
9 72
9 73
9 74
9 75
9 78
9 80
9 82
9 83
9 85
9 92
9 93
9 94
9 95
9 99
9 100
10 11
10 12
10 13
10 16
10 21
10 23
10 24
10 29
10 30
10 32
10 33
10 34
10 35
10 36
10 38
10 39
10 40
10 42
10 44
10 45
10 47
10 49
10 50
10 52
10 53
10 54
10 55
10 56
10 61
10 62
10 64
10 65
10 66
10 67
10 69
10 70
10 72
10 73
10 74
10 75
10 76
10 77
10 79
10 80
10 83
10 84
10 85
10 86
10 87
10 90
10 94
10 96
10 98
10 99
11 12
11 17
11 22
11 25
11 26
11 28
11 29
11 31
11 33
11 34
11 36
11 39
11 41
11 44
11 46
11 48
11 50
11 52
11 54
11 57
11 58
11 63
11 66
11 68
11 69
11 70
11 71
11 73
11 74
11 75
11 81
11 87
11 89
11 93
11 95
11 96
11 97
12 13
12 16
12 17
12 19
12 20
12 23
12 27
12 28
12 29
12 31
12 33
12 34
12 37
12 41
12 45
12 46
12 47
12 51
12 54
12 55
12 56
12 57
12 58
12 60
12 61
12 63
12 64
12 65
12 67
12 71
12 72
12 73
12 76
12 77
12 79
12 81
12 89
12 90
12 91
12 92
12 93
12 94
12 96
12 99
13 14
13 17
13 20
13 22
13 25
13 30
13 31
13 35
13 36
13 45
13 49
13 51
13 52
13 54
13 55
13 58
13 59
13 60
13 61
13 62
13 64
13 67
13 68
13 71
13 76
13 78
13 79
13 85
13 89
13 92
13 93
13 94
13 97
13 99
13 100
14 15
14 16
14 17
14 18
14 19
14 20
14 21
14 22
14 23
14 24
14 25
14 30
14 31
14 32
14 33
14 40
14 42
14 43
14 45
14 48
14 49
14 50
14 54
14 57
14 59
14 60
14 62
14 65
14 68
14 69
14 72
14 76
14 80
14 82
14 84
14 85
14 87
14 89
14 91
14 93
14 99
15 16
15 17
15 19
15 21
15 23
15 24
15 26
15 27
15 31
15 33
15 34
15 35
15 37
15 39
15 40
15 41
15 42
15 43
15 44
15 45
15 48
15 49
15 50
15 52
15 54
15 57
15 58
15 59
15 62
15 63
15 64
15 65
15 68
15 71
15 72
15 73
15 78
15 86
15 88
15 90
15 91
15 94
15 96
15 97
15 99
16 17
16 18
16 22
16 24
16 25
16 26
16 28
16 29
16 33
16 34
16 37
16 39
16 41
16 42
16 43
16 44
16 45
16 46
16 47
16 48
16 50
16 51
16 54
16 58
16 62
16 64
16 66
16 67
16 69
16 73
16 76
16 77
16 85
16 86
16 88
16 90
16 91
16 93
16 95
16 96
17 18
17 19
17 21
17 23
17 24
17 25
17 26
17 27
17 28
17 29
17 30
17 31
17 34
17 36
17 37
17 38
17 40
17 41
17 42
17 43
17 49
17 50
17 51
17 53
17 54
17 55
17 56
17 59
17 63
17 64
17 67
17 69
17 71
17 73
17 76
17 78
17 79
17 81
17 84
17 86
17 88
17 90
17 91
17 93
17 94
17 97
17 98
18 19
18 23
18 26
18 38
18 39
18 41
18 42
18 43
18 46
18 48
18 49
18 55
18 58
18 59
18 62
18 66
18 67
18 68
18 69
18 70
18 71
18 73
18 76
18 77
18 82
18 85
18 86
18 87
18 90
18 91
18 92
18 94
18 96
18 97
18 98
18 99
18 100
19 20
19 26
19 30
19 32
19 33
19 34
19 36
19 41
19 42
19 44
19 46
19 47
19 49
19 55
19 57
19 62
19 65
19 70
19 71
19 72
19 73
19 75
19 79
19 80
19 84
19 86
19 87
19 90
19 91
19 92
19 93
19 94
19 96
19 99
19 100
20 21
20 25
20 26
20 28
20 29
20 30
20 31
20 33
20 37
20 42
20 43
20 45
20 46
20 50
20 51
20 52
20 57
20 58
20 61
20 62
20 67
20 72
20 73
20 74
20 78
20 79
20 81
20 82
20 83
20 87
20 89
20 91
20 92
20 93
20 94
20 99
20 100
21 22
21 27
21 28
21 29
21 31
21 32
21 34
21 37
21 40
21 41
21 42
21 46
21 48
21 49
21 50
21 54
21 56
21 59
21 60
21 61
21 62
21 64
21 69
21 70
21 71
21 72
21 75
21 76
21 79
21 80
21 81
21 82
21 83
21 84
21 85
21 89
21 90
21 94
21 97
22 23
22 24
22 25
22 26
22 28
22 29
22 30
22 31
22 36
22 41
22 43
22 44
22 45
22 46
22 47
22 48
22 49
22 51
22 52
22 53
22 54
22 55
22 59
22 60
22 61
22 64
22 69
22 71
22 72
22 73
22 75
22 77
22 78
22 82
22 83
22 85
22 87
22 90
22 91
22 94
22 96
22 97
22 98
22 99
23 24
23 27
23 28
23 29
23 32
23 34
23 40
23 42
23 43
23 47
23 48
23 50
23 51
23 52
23 53
23 54
23 55
23 59
23 61
23 62
23 67
23 68
23 73
23 74
23 76
23 77
23 78
23 79
23 81
23 82
23 90
23 91
23 93
23 94
23 95
24 25
24 28
24 29
24 33
24 34
24 35
24 39
24 43
24 44
24 45
24 48
24 49
24 51
24 52
24 57
24 59
24 64
24 66
24 67
24 69
24 70
24 71
24 73
24 74
24 75
24 77
24 78
24 82
24 85
24 86
24 95
24 96
24 99
24 100
25 26
25 28
25 32
25 34
25 37
25 38
25 39
25 42
25 43
25 44
25 45
25 46
25 47
25 48
25 50
25 52
25 53
25 57
25 58
25 59
25 60
25 62
25 68
25 70
25 71
25 72
25 73
25 75
25 78
25 80
25 81
25 84
25 87
25 89
25 91
25 96
25 97
25 98
25 100
26 27
26 28
26 31
26 32
26 33
26 34
26 35
26 37
26 39
26 43
26 44
26 45
26 50
26 52
26 53
26 55
26 59
26 60
26 61
26 62
26 63
26 67
26 70
26 71
26 72
26 73
26 74
26 75
26 77
26 78
26 79
26 85
26 86
26 88
26 94
26 97
26 98
26 100
27 28
27 29
27 32
27 33
27 40
27 42
27 43
27 46
27 49
27 52
27 55
27 56
27 59
27 61
27 62
27 63
27 64
27 66
27 69
27 78
27 79
27 82
27 85
27 86
27 96
27 98
27 99
27 100
28 29
28 30
28 32
28 33
28 34
28 37
28 43
28 44
28 47
28 48
28 49
28 56
28 60
28 61
28 62
28 65
28 66
28 69
28 70
28 71
28 72
28 73
28 74
28 75
28 76
28 79
28 81
28 82
28 89
28 90
28 92
28 93
28 96
28 98
29 30
29 31
29 33
29 34
29 35
29 36
29 37
29 39
29 40
29 41
29 42
29 47
29 48
29 50
29 51
29 52
29 56
29 57
29 59
29 61
29 62
29 63
29 64
29 65
29 67
29 69
29 70
29 72
29 73
29 75
29 80
29 84
29 85
29 88
29 89
29 91
29 92
29 93
29 96
29 97
30 31
30 32
30 33
30 37
30 40
30 42
30 43
30 44
30 45
30 46
30 48
30 49
30 50
30 53
30 54
30 55
30 57
30 58
30 60
30 63
30 65
30 68
30 69
30 71
30 74
30 75
30 76
30 77
30 78
30 79
30 80
30 82
30 85
30 87
30 89
30 90
30 92
30 94
30 99
30 100
31 32
31 33
31 35
31 38
31 42
31 45
31 47
31 50
31 51
31 54
31 56
31 59
31 60
31 62
31 65
31 66
31 68
31 69
31 72
31 74
31 75
31 76
31 78
31 81
31 85
31 86
31 88
31 90
31 99
31 100
32 33
32 35
32 38
32 42
32 44
32 46
32 48
32 49
32 51
32 52
32 55
32 56
32 57
32 58
32 59
32 60
32 61
32 62
32 64
32 69
32 71
32 72
32 73
32 76
32 79
32 81
32 82
32 85
32 87
32 94
32 95
32 97
33 34
33 35
33 36
33 37
33 38
33 40
33 42
33 45
33 47
33 50
33 54
33 56
33 58
33 60
33 61
33 64
33 69
33 72
33 76
33 77
33 78
33 79
33 80
33 83
33 85
33 89
33 94
33 99
33 100
34 35
34 38
34 39
34 40
34 41
34 42
34 43
34 46
34 48
34 49
34 51
34 52
34 56
34 58
34 59
34 63
34 65
34 66
34 70
34 75
34 76
34 79
34 81
34 82
34 88
34 90
34 92
34 93
34 95
34 96
34 97
34 99
35 36
35 37
35 42
35 43
35 46
35 47
35 50
35 59
35 62
35 64
35 65
35 66
35 68
35 69
35 71
35 73
35 74
35 76
35 80
35 83
35 87
35 88
35 90
35 91
35 95
35 97
35 98
35 100
36 37
36 38
36 40
36 41
36 43
36 47
36 48
36 49
36 50
36 52
36 53
36 54
36 55
36 57
36 58
36 61
36 64
36 65
36 69
36 74
36 75
36 79
36 80
36 81
36 82
36 83
36 84
36 87
36 88
36 90
36 91
36 94
36 97
36 98
36 99
37 38
37 39
37 41
37 43
37 44
37 45
37 46
37 47
37 50
37 51
37 52
37 53
37 54
37 58
37 60
37 61
37 62
37 63
37 65
37 66
37 68
37 69
37 71
37 72
37 73
37 76
37 77
37 83
37 84
37 87
37 90
37 91
37 92
37 94
37 96
37 98
38 39
38 41
38 42
38 43
38 44
38 46
38 48
38 49
38 50
38 51
38 55
38 56
38 57
38 58
38 60
38 61
38 62
38 63
38 64
38 66
38 68
38 69
38 72
38 75
38 80
38 81
38 82
38 84
38 85
38 87
38 89
38 95
38 96
38 97
38 99
39 40
39 43
39 45
39 46
39 49
39 50
39 52
39 55
39 56
39 58
39 59
39 60
39 61
39 62
39 63
39 67
39 68
39 69
39 70
39 71
39 72
39 76
39 77
39 81
39 82
39 84
39 86
39 87
39 90
39 97
39 100
40 41
40 43
40 45
40 46
40 47
40 51
40 52
40 53
40 57
40 58
40 62
40 63
40 65
40 66
40 67
40 68
40 69
40 72
40 73
40 74
40 75
40 76
40 79
40 80
40 81
40 82
40 83
40 85
40 86
40 87
40 88
40 89
40 91
40 95
40 96
40 98
41 42
41 46
41 47
41 48
41 51
41 53
41 54
41 56
41 57
41 58
41 59
41 62
41 64
41 65
41 67
41 71
41 74
41 76
41 77
41 78
41 81
41 82
41 84
41 85
41 87
41 88
41 89
41 93
41 94
41 95
41 96
41 98
41 99
42 43
42 44
42 45
42 47
42 49
42 52
42 53
42 54
42 57
42 58
42 62
42 64
42 65
42 69
42 71
42 73
42 77
42 83
42 85
42 92
42 100
43 44
43 45
43 46
43 47
43 48
43 50
43 54
43 57
43 58
43 64
43 66
43 72
43 73
43 74
43 75
43 76
43 77
43 82
43 84
43 85
43 90
43 93
43 94
43 96
43 98
43 99
44 45
44 46
44 47
44 48
44 49
44 56
44 59
44 61
44 63
44 65
44 66
44 71
44 72
44 76
44 77
44 78
44 79
44 81
44 83
44 84
44 85
44 86
44 89
44 90
44 93
44 94
44 95
45 46
45 47
45 48
45 49
45 50
45 54
45 55
45 56
45 58
45 61
45 62
45 63
45 66
45 67
45 70
45 71
45 72
45 73
45 77
45 78
45 80
45 82
45 84
45 85
45 86
45 88
45 92
45 93
45 94
45 96
45 97
46 47
46 48
46 53
46 55
46 56
46 58
46 59
46 62
46 63
46 64
46 67
46 69
46 70
46 71
46 73
46 74
46 76
46 78
46 81
46 82
46 83
46 84
46 86
46 88
46 89
46 100
47 48
47 50
47 55
47 57
47 59
47 60
47 61
47 68
47 69
47 70
47 73
47 74
47 77
47 81
47 83
47 84
47 86
47 87
47 88
47 89
47 93
47 97
47 100
48 49
48 50
48 52
48 54
48 56
48 57
48 58
48 60
48 64
48 65
48 67
48 68
48 70
48 73
48 75
48 78
48 81
48 82
48 84
48 85
48 86
48 90
48 92
48 93
48 95
48 96
48 100
49 50
49 51
49 52
49 55
49 56
49 58
49 59
49 62
49 63
49 65
49 67
49 68
49 69
49 70
49 72
49 73
49 75
49 76
49 79
49 82
49 85
49 86
49 88
49 90
49 91
49 92
49 95
49 96
49 97
49 98
49 99
50 51
50 52
50 53
50 56
50 58
50 61
50 63
50 64
50 67
50 68
50 69
50 70
50 71
50 72
50 73
50 75
50 76
50 78
50 79
50 81
50 82
50 83
50 84
50 85
50 86
50 88
50 89
50 92
50 94
50 100
51 52
51 56
51 57
51 64
51 72
51 73
51 76
51 77
51 79
51 80
51 81
51 82
51 88
51 89
51 93
51 97
51 98
51 100
52 53
52 57
52 60
52 62
52 63
52 64
52 65
52 66
52 67
52 68
52 69
52 75
52 79
52 80
52 81
52 84
52 85
52 89
52 90
52 93
52 96
52 97
52 98
52 99
53 54
53 56
53 59
53 60
53 62
53 63
53 64
53 66
53 70
53 71
53 72
53 75
53 76
53 77
53 78
53 79
53 80
53 82
53 85
53 88
53 89
53 91
53 93
53 94
53 96
53 97
53 98
53 99
54 55
54 56
54 61
54 62
54 63
54 64
54 65
54 67
54 69
54 71
54 73
54 74
54 75
54 76
54 77
54 78
54 81
54 85
54 86
54 87
54 90
54 93
54 95
54 96
54 98
54 99
54 100
55 56
55 57
55 60
55 61
55 63
55 64
55 65
55 67
55 69
55 70
55 72
55 73
55 74
55 76
55 77
55 79
55 81
55 93
55 94
55 95
55 96
55 99
56 57
56 59
56 60
56 62
56 63
56 64
56 65
56 66
56 67
56 73
56 75
56 80
56 82
56 83
56 85
56 89
56 91
56 95
56 96
56 100
57 58
57 59
57 61
57 62
57 64
57 65
57 67
57 68
57 71
57 77
57 78
57 80
57 81
57 84
57 85
57 86
57 87
57 88
57 91
57 92
57 94
57 96
57 97
57 100
58 59
58 61
58 62
58 67
58 69
58 71
58 73
58 74
58 76
58 77
58 80
58 81
58 82
58 87
58 89
58 92
58 93
58 96
58 97
58 99
58 100
59 60
59 63
59 65
59 66
59 68
59 69
59 70
59 73
59 74
59 75
59 77
59 79
59 80
59 82
59 83
59 85
59 90
59 93
59 94
59 95
59 97
59 98
59 99
59 100
60 61
60 63
60 66
60 69
60 70
60 73
60 74
60 79
60 81
60 82
60 83
60 85
60 86
60 89
60 90
60 95
60 96
61 62
61 63
61 64
61 65
61 66
61 67
61 68
61 70
61 72
61 73
61 75
61 77
61 80
61 81
61 83
61 84
61 85
61 90
61 92
61 93
61 96
61 99
61 100
62 63
62 64
62 65
62 66
62 67
62 69
62 70
62 71
62 72
62 74
62 76
62 80
62 81
62 82
62 85
62 90
62 92
62 93
62 94
62 96
62 97
62 98
63 64
63 66
63 67
63 68
63 69
63 70
63 71
63 72
63 74
63 75
63 76
63 78
63 83
63 84
63 87
63 88
63 96
63 97
63 98
64 65
64 67
64 69
64 70
64 73
64 74
64 75
64 76
64 78
64 83
64 84
64 85
64 87
64 88
64 94
64 95
64 96
64 97
64 99
65 66
65 67
65 69
65 72
65 74
65 76
65 77
65 78
65 79
65 80
65 83
65 84
65 85
65 87
65 88
65 90
65 94
65 97
66 67
66 76
66 78
66 80
66 81
66 83
66 85
66 87
66 88
66 89
66 90
66 92
66 96
66 97
66 98
66 100
67 68
67 69
67 71
67 72
67 76
67 78
67 79
67 80
67 81
67 82
67 83
67 84
67 85
67 89
67 90
67 91
67 94
67 95
67 96
67 97
67 98
67 99
68 69
68 70
68 71
68 72
68 73
68 75
68 76
68 82
68 85
68 86
68 88
68 89
68 90
68 91
68 96
68 97
68 98
69 70
69 71
69 75
69 76
69 77
69 78
69 80
69 81
69 82
69 83
69 84
69 90
69 91
69 92
69 94
69 95
69 97
69 98
69 99
69 100
70 71
70 72
70 77
70 82
70 85
70 87
70 90
70 93
70 94
70 97
70 100
71 72
71 76
71 78
71 81
71 88
71 89
71 90
71 91
71 93
71 99
71 100
72 73
72 74
72 76
72 77
72 78
72 82
72 84
72 90
72 91
72 94
72 95
72 97
73 74
73 75
73 79
73 81
73 83
73 84
73 87
73 89
73 90
73 93
73 99
73 100
74 75
74 76
74 77
74 78
74 80
74 83
74 85
74 86
74 89
74 90
74 95
74 96
74 97
74 98
74 99
75 76
75 77
75 78
75 81
75 82
75 84
75 85
75 86
75 87
75 90
75 91
75 93
75 95
75 100
76 77
76 79
76 80
76 81
76 84
76 85
76 86
76 87
76 89
76 90
76 95
76 96
76 98
76 99
76 100
77 78
77 79
77 80
77 81
77 82
77 84
77 85
77 86
77 90
77 95
77 96
77 99
77 100
78 79
78 83
78 84
78 85
78 86
78 92
78 94
79 80
79 83
79 84
79 85
79 91
79 96
79 97
79 98
80 81
80 83
80 85
80 86
80 88
80 89
80 91
80 93
80 94
80 96
80 97
80 99
80 100
81 82
81 83
81 84
81 85
81 87
81 89
81 90
81 92
81 93
81 94
81 95
81 96
81 98
81 99
81 100
82 83
82 87
82 90
82 91
82 97
83 84
83 85
83 87
83 88
83 90
83 91
83 92
83 93
83 94
83 96
83 97
83 99
84 85
84 87
84 89
84 92
84 95
84 96
84 97
84 99
84 100
85 86
85 87
85 88
85 89
85 90
85 92
85 93
85 94
85 97
86 87
86 93
86 97
87 88
87 94
87 96
87 98
87 100
88 89
88 93
88 95
88 99
88 100
89 90
89 91
89 92
89 94
89 95
89 96
89 98
89 100
90 91
90 93
90 95
90 98
90 99
90 100
91 92
91 94
91 97
91 98
91 99
92 93
92 96
92 100
93 94
93 96
93 97
93 99
93 100
94 95
94 97
94 100
95 96
96 97
96 99
96 100
97 98
97 99
97 100
98 99
99 100
